100 8
696 789
171 175
643 352
479 358
216 588
294 207
226 625
510 424
889 583
313 824
818 319
340 119
738 356
328 325
45 587
544 250
272 196
789 393
416 235
325 753
580 735
204 796
709 524
443 703
291 179
682 921
690 464
317 829
541 437
879 572
477 410
272 295
60 575
570 146
383 82
838 353
26 191
720 370
842 205
503 549
768 268
369 848
446 687
730 173
333 163
213 771
354 835
157 641
139 194
359 70
510 73
134 283
218 610
499 355
287 121
409 214
442 184
658 440
511 479
67 227
850 221
58 156
382 871
807 351
171 241
307 878
19 749
859 564
496 451
347 98
723 824
704 301
558 252
756 920
20 206
305 806
777 350
898 417
215 661
321 48
726 514
763 533
115 766
628 440
573 539
505 596
832 614
228 787
626 693
131 826
768 603
365 166
583 521
766 366
765 689
737 837
360 771
681 486
726 836
721 914
